nNurses = 124;
nHours = 27;
minHours = 7;
maxHours = 12;
maxConsec = 7;
maxPresence = 22;
demand = [23, 21, 16, 12, 11, 10, 12, 11, 7, 8, 10, 8, 8, 9, 14, 12, 7, 12, 16, 12, 17, 16, 21, 24, 21, 19, 20];
